Running for instance ./models/rc206.txt
Generating routes...
Execution time:  0.116777316667  minutes
Academic license - for non-commercial use only
Warning: constraint name "Cliente esta na rota" has a space
Optimize a model with 26 rows, 5000 columns and 37842 nonzeros
Variable types: 0 continuous, 5000 integer (0 binary)
Coefficient statistics:
  Matrix range     [1e+00, 1e+00]
  Objective range  [7e+01, 4e+02]
  Bounds range     [1e+00, 1e+00]
  RHS range        [1e+00, 2e+01]
Found heuristic solution: objective 1198.0799992
Presolve removed 0 rows and 2693 columns
Presolve time: 0.03s
Presolved: 26 rows, 2307 columns, 17902 nonzeros
Found heuristic solution: objective 890.4850147
Variable types: 0 continuous, 2307 integer (2307 binary)

Root relaxation: objective 5.065737e+02, 81 iterations, 0.00 seconds

    Nodes    |    Current Node    |     Objective Bounds      |     Work
 Expl Unexpl |  Obj  Depth IntInf | Incumbent    BestBd   Gap | It/Node Time

     0     0  506.57369    0   23  890.48501  506.57369  43.1%     -    0s
H    0     0                     584.1939980  506.57369  13.3%     -    0s
H    0     0                     541.4720880  506.57369  6.45%     -    0s
     0     0  516.77075    0   23  541.47209  516.77075  4.56%     -    0s
     0     0  516.77075    0   20  541.47209  516.77075  4.56%     -    0s
     0     0  516.77075    0   13  541.47209  516.77075  4.56%     -    0s
     0     0  519.97843    0   15  541.47209  519.97843  3.97%     -    0s
     0     0  520.79420    0   20  541.47209  520.79420  3.82%     -    0s
     0     0  521.62107    0   19  541.47209  521.62107  3.67%     -    0s
     0     0  522.07441    0   18  541.47209  522.07441  3.58%     -    0s
     0     0  523.71635    0   16  541.47209  523.71635  3.28%     -    0s
     0     0  524.28213    0   22  541.47209  524.28213  3.17%     -    0s
     0     0  524.32817    0   21  541.47209  524.32817  3.17%     -    0s
     0     0  524.89500    0   22  541.47209  524.89500  3.06%     -    0s
     0     0  537.78719    0   27  541.47209  537.78719  0.68%     -    0s
     0     0     cutoff    0       541.47209  541.47209  0.00%     -    0s

Explored 1 nodes (351 simplex iterations) in 0.11 seconds
Thread count was 8 (of 8 available processors)

Solution count 4: 541.472 584.194 890.485 911.883 

Optimal solution found (tolerance 1.00e-04)
Best objective 5.414720879627e+02, best bound 5.414720879627e+02, gap 0.0000%
2 5 14 16 10 9 20
11 12 15 21 19 18
6 7 8 4 1 3 17 13 25
Distance: 541.472087963
Execution time:  0.124400033333  minutes
